Version identifier: 12.10.0.0 | 2019-11-26 | 843d4de
CPXPARAM_WorkMem                                 28672
Tried aggregator 2 times.
MIP Presolve modified 33 coefficients.
Aggregator did 50 substitutions.
Reduced MIP has 163 rows, 180 columns, and 726 nonzeros.
Reduced MIP has 180 binaries, 0 generals, 0 SOSs, and 0 indicators.
Presolve time = 0,00 sec. (1,04 ticks)
Found incumbent of value 150,000000 after 0,00 sec. (1,49 ticks)
Probing time = 0,00 sec. (0,32 ticks)
Tried aggregator 1 time.
Detecting symmetries...
MIP Presolve eliminated 39 rows and 0 columns.
MIP Presolve added 78 rows and 0 columns.
Reduced MIP has 202 rows, 180 columns, and 765 nonzeros.
Reduced MIP has 180 binaries, 0 generals, 0 SOSs, and 0 indicators.
Presolve time = 0,00 sec. (1,02 ticks)
Probing time = 0,00 sec. (0,32 ticks)
Clique table members: 526.
MIP emphasis: balance optimality and feasibility.
MIP search method: dynamic search.
Parallel mode: deterministic, using up to 16 threads.
Root relaxation solution time = 0,00 sec. (1,07 ticks)

        Nodes                                         Cuts/
   Node  Left     Objective  IInf  Best Integer    Best Bound    ItCnt     Gap

*     0+    0                          150,0000        0,0000           100,00%
*     0+    0                          105,0000        0,0000           100,00%
      0     0       52,7500   180      105,0000       52,7500      117   49,76%
      0     0       55,1407   180      105,0000      Cuts: 44      166   47,49%
*     0+    0                          102,0000       55,1407            45,94%
      0     0       56,4768   180      102,0000     Cuts: 150      224   44,63%
      0     0       56,9844   180      102,0000     Cuts: 150      260   44,13%
      0     0       57,1774   180      102,0000      Cuts: 32      288   43,94%
      0     0       57,4517   180      102,0000     Cuts: 115      335   43,67%
      0     0       66,6088   180      102,0000     Cuts: 134      497   34,70%
      0     0       67,0130   180      102,0000      Cuts: 23      545   34,30%
      0     0       67,2221   180      102,0000  ZeroHalf: 18      571   34,10%
      0     0       67,4615   180      102,0000      Cuts: 24      608   33,86%
      0     0       67,8649   180      102,0000  ZeroHalf: 25      650   33,47%
      0     0       68,1114   180      102,0000      Cuts: 27      687   33,22%
      0     0       68,3331   180      102,0000      Cuts: 26      713   33,01%
      0     0       68,7329   180      102,0000      Cuts: 25      762   32,61%
      0     0       69,0006   180      102,0000      Cuts: 32      817   32,35%
      0     0       69,1810   180      102,0000      Cuts: 54      877   32,18%
      0     0       69,3534   180      102,0000      Cuts: 35      920   32,01%
      0     0       69,4600   180      102,0000      Cuts: 32      953   31,90%
      0     0       69,5635   180      102,0000      Cuts: 58      993   31,80%
      0     0       69,6493   180      102,0000      Cuts: 34     1024   31,72%
      0     0       69,7481   180      102,0000      Cuts: 28     1072   24,18%
      0     0       69,8901   180      102,0000      Cuts: 73     1118   24,18%
      0     2       69,8901   157      102,0000       79,8333     1118   21,73%
Elapsed time = 0,24 sec. (128,68 ticks, tree = 0,02 MB, solutions = 3)

Clique cuts applied:  22
Cover cuts applied:  100
Flow cuts applied:  2
Mixed integer rounding cuts applied:  45
Zero-half cuts applied:  55
Gomory fractional cuts applied:  5

Root node processing (before b&c):
  Real time             =    0,23 sec. (128,40 ticks)
Parallel b&c, 16 threads:
  Real time             =    0,06 sec. (35,31 ticks)
  Sync time (average)   =    0,03 sec.
  Wait time (average)   =    0,00 sec.
                          ------------
Total (root+branch&cut) =    0,29 sec. (163,71 ticks)
